NAME: bip_40_4
TYPE: TSP
COMMENT: bip_40_4
DIMENSION: 40
EDGE_WEIGHT_TYPE: EUC_2D
NODE_COORD_SECTION
1 7 83
2 41 16
3 10 12
4 70 71
5 78 78
6 32 95
7 45 34
8 94 18
9 41 62
10 32 44
11 14 3
12 71 58
13 98 68
14 92 76
15 9 20
16 98 31
17 8 88
18 56 85
19 33 42
20 97 23
21 498 405
22 418 427
23 409 497
24 477 472
25 465 411
26 449 416
27 430 401
28 493 477
29 441 495
30 442 458
31 474 414
32 401 490
33 439 496
34 490 497
35 420 460
36 429 474
37 491 485
38 449 475
39 423 421
40 439 440
